Academic license - for non-commercial use only - expires 2022-11-10
Using license file /home/benedond/Apps/gurobi/gurobi950/gurobi.lic
Using gurobi.env file
Set parameter Threads to value 1
Changed value of parameter TimeLimit to 300.0
   Prev: inf  Min: 0.0  Max: inf  Default: inf
Gurobi Optimizer version 9.1.2 build v9.1.2rc0 (linux64)
Thread count: 2 physical cores, 4 logical processors, using up to 1 threads
Optimize a model with 1008 rows, 907 columns and 4309 nonzeros
Model fingerprint: 0x7c2e13e4
Variable types: 40 continuous, 867 integer (867 binary)
Coefficient statistics:
  Matrix range     [5e-02, 2e+02]
  Objective range  [3e-02, 5e-01]
  Bounds range     [1e+00, 1e+00]
  RHS range        [1e+00, 6e+02]
Presolve removed 185 rows and 49 columns
Presolve time: 0.02s
Presolved: 823 rows, 858 columns, 3910 nonzeros
Variable types: 38 continuous, 820 integer (820 binary)
Found heuristic solution: objective 3.7240367

Root relaxation: objective 2.783251e+00, 731 iterations, 0.01 seconds

    Nodes    |    Current Node    |     Objective Bounds      |     Work
 Expl Unexpl |  Obj  Depth IntInf | Incumbent    BestBd   Gap | It/Node Time

     0     0    2.78325    0   65    3.72404    2.78325  25.3%     -    0s
H    0     0                       3.4871363    2.78325  20.2%     -    0s
H    0     0                       3.1078224    2.78325  10.4%     -    0s
H    0     0                       3.0576304    2.78325  8.97%     -    0s
     0     0    2.84175    0   57    3.05763    2.84175  7.06%     -    0s
     0     0    2.84234    0   56    3.05763    2.84234  7.04%     -    0s
     0     0    2.85978    0   55    3.05763    2.85978  6.47%     -    0s
H    0     0                       3.0369906    2.85978  5.84%     -    0s
     0     0    2.88147    0   54    3.03699    2.88147  5.12%     -    0s
     0     0    2.88334    0   51    3.03699    2.88334  5.06%     -    0s
     0     0    2.89421    0   42    3.03699    2.89421  4.70%     -    0s
     0     0    2.89421    0   65    3.03699    2.89421  4.70%     -    0s
     0     0    2.89421    0   46    3.03699    2.89421  4.70%     -    0s
     0     0    2.89421    0   45    3.03699    2.89421  4.70%     -    0s
     0     0    2.89421    0   69    3.03699    2.89421  4.70%     -    0s
     0     0    2.89794    0   57    3.03699    2.89794  4.58%     -    0s
     0     0    2.92160    0   54    3.03699    2.92160  3.80%     -    0s
     0     0    2.92658    0   61    3.03699    2.92658  3.64%     -    0s
     0     0    2.92823    0   69    3.03699    2.92823  3.58%     -    0s
     0     0    2.92928    0   63    3.03699    2.92928  3.55%     -    0s
     0     0    2.92972    0   64    3.03699    2.92972  3.53%     -    0s
H    0     0                       3.0310022    2.92972  3.34%     -    0s
     0     0    2.93027    0   65    3.03100    2.93027  3.32%     -    0s
     0     0    2.93043    0   54    3.03100    2.93043  3.32%     -    0s
H    0     0                       3.0073572    2.93043  2.56%     -    0s
     0     0    2.93062    0   67    3.00736    2.93062  2.55%     -    0s
     0     0    2.93070    0   55    3.00736    2.93070  2.55%     -    0s
     0     0    2.93070    0   65    3.00736    2.93070  2.55%     -    0s
     0     0    2.93070    0   41    3.00736    2.93070  2.55%     -    0s
     0     0    2.93070    0   42    3.00736    2.93070  2.55%     -    0s
     0     0    2.93070    0   56    3.00736    2.93070  2.55%     -    0s
     0     0    2.93070    0   67    3.00736    2.93070  2.55%     -    0s
     0     0    2.93070    0   49    3.00736    2.93070  2.55%     -    0s
     0     0    2.93070    0   61    3.00736    2.93070  2.55%     -    0s
     0     0    2.93070    0   77    3.00736    2.93070  2.55%     -    0s
H    0     0                       3.0036972    2.93070  2.43%     -    0s
     0     0    2.93070    0   81    3.00370    2.93070  2.43%     -    0s
     0     0    2.93088    0   75    3.00370    2.93088  2.42%     -    0s
     0     0    2.93088    0   68    3.00370    2.93088  2.42%     -    0s
H    0     0                       3.0000686    2.93174  2.28%     -    0s
     0     2    2.93174    0   67    3.00007    2.93174  2.28%     -    0s
H   52    36                       2.9984229    2.94302  1.85%  22.3    0s
H  300   104                       2.9946884    2.94912  1.52%  20.2    1s
* 1126    59              17       2.9937983    2.98119  0.42%  17.7    1s

Cutting planes:
  Gomory: 2
  Cover: 53
  Implied bound: 20
  Clique: 12
  MIR: 47
  StrongCG: 5
  Inf proof: 3
  RLT: 9
  Relax-and-lift: 50

Explored 1199 nodes (25467 simplex iterations) in 1.78 seconds
Thread count was 1 (of 4 available processors)

Solution count 10: 2.9938 2.99469 2.99842 ... 3.10782

Optimal solution found (tolerance 1.00e-04)
Best objective 2.993798273946e+00, best bound 2.993729292188e+00, gap 0.0023%
